(set-logic ALL)
(declare-fun var0 () String)
(assert (str.in_re var0 (re.++ (re.+ (re.union (str.to_re "000") (str.to_re "1"))) (re.++ (re.* (re.+ (str.to_re "22"))) (re.++ (re.* (re.+ (str.to_re "33"))) (re.++ (re.* (re.union (str.to_re "44") (str.to_re "555"))) (re.++ (re.+ (re.union (str.to_re "666") (str.to_re "77"))) (re.++ (re.union (re.+ (str.to_re "888")) (re.+ (str.to_re "999"))) (re.++ (re.* (re.* (str.to_re "aa"))) (re.++ (re.union (re.union (str.to_re "b") (str.to_re "c")) (re.union (str.to_re "ddd") (str.to_re "e"))) (re.++ (re.* (re.union (str.to_re "f") (str.to_re "gg"))) (re.+ (re.+ (str.to_re "hhh"))))))))))))))
(assert (<= 201 (str.len var0)))
(check-sat)